job_count = 18 ;
duration = [|20, 12, 5|24, 15, 4|16, 17, 8|21, 9, 1|15, 13, 3|4, 19, 7|4, 8, 5|19, 2, 8|14, 13, 6|25, 16, 5|12, 8, 5|25, 14, 5|14, 12, 2|21, 15, 5|11, 17, 8|23, 7, 5|17, 6, 4|13, 18, 6|] ;
machine_count = 3 ;
cost = [|16, 32, 57|11, 29, 48|16, 28, 33|19, 39, 53|19, 37, 44|14, 39, 40|15, 36, 56|14, 39, 59|18, 37, 40|11, 21, 57|12, 27, 58|13, 29, 32|17, 35, 37|12, 30, 51|12, 28, 39|18, 33, 54|10, 32, 46|14, 26, 31|] ;
deadline = [40, 40, 40, 40, 40, 40, 40, 40, 40, 40, 40, 40, 40, 40, 40, 40, 40, 40] ;
release = [0, 0, 0, 0, 0, 0, 0, 0, 0, 0, 0, 0, 0, 0, 0, 0, 0, 0] ;
resource = [|8, 8, 8|2, 2, 2|7, 7, 7|6, 6, 6|5, 5, 5|9, 9, 9|5, 5, 5|7, 7, 7|8, 8, 8|1, 1, 1|6, 6, 6|3, 3, 3|8, 8, 8|7, 7, 7|8, 8, 8|8, 8, 8|9, 9, 9|2, 2, 2|] ;
capacities = [10, 10, 10] ;
